84 51 
29 2 
33 33 
87 84 
33 47 
52 62 
13 82 
66 22 
83 31 
34 55 
29 43 
23 62 
5 81 
1 53 
85 57 
75 69 
9 5 
71 42 
90 10 
78 75 
58 30 
38 23 
64 4 
45 48 
35 31 
55 17 
75 79 
79 80 
60 80 
85 45 
90 61 
67 51 
18 90 
45 8 
1 24 
83 11 
54 73 
34 71 
77 31 
71 65 
63 26 
34 90 
57 13 
70 69 
45 8 
67 35 
69 34 
86 87 
24 32 
47 77 
